p cnf 52 179
3 -1 0
3 -2 0
1 2 -3 0
-5 4 0
-5 2 0
-4 -2 5 0
6 3 0
6 5 0
-3 -5 -6 0
-8 -2 -9 0
8 2 -9 0
-8 2 9 0
8 -2 9 0
2 9 -10 0
-2 -9 -10 0
2 -9 10 0
-2 9 10 0
-11 -1 0
-11 -10 0
1 10 11 0
12 -7 0
12 -11 0
7 11 -12 0
-13 -6 0
-13 -12 0
6 12 13 0
14 -3 0
14 8 0
3 -8 -14 0
15 -14 0
15 -2 0
14 2 -15 0
-16 7 0
-16 1 0
-7 -1 16 0
-16 -17 -18 0
16 17 -18 0
-16 17 18 0
16 -17 18 0
19 -1 0
19 18 0
1 -18 -19 0
21 -20 0
21 -20 0
20 -21 0
-22 -19 0
-22 21 0
19 -21 22 0
23 -15 0
23 -22 0
15 22 -23 0
13 -23 -24 0
-13 23 -24 0
13 23 24 0
-13 -23 24 0
-25 -1 0
-25 9 0
1 -9 25 0
-26 -16 0
-26 -17 0
16 17 26 0
-27 26 0
-27 19 0
-26 -19 27 0
29 -2 0
29 8 0
2 -8 -29 0
28 29 -30 0
-28 -29 -30 0
28 -29 30 0
-28 29 30 0
31 10 0
31 30 0
-10 -30 -31 0
32 20 0
32 28 0
-20 -28 -32 0
33 -31 0
33 -32 0
31 32 -33 0
-27 -33 -34 0
27 33 -34 0
-27 33 34 0
27 -33 34 0
25 -34 -35 0
-25 34 -35 0
25 34 35 0
-25 -34 35 0
36 24 0
36 -35 0
-24 35 -36 0
38 -20 0
38 37 0
20 -37 -38 0
-39 -8 0
-39 38 0
8 -38 39 0
40 29 0
40 18 0
-29 -18 -40 0
38 -16 -41 0
-38 16 -41 0
38 16 41 0
-38 -16 41 0
-42 -40 0
-42 -41 0
40 41 42 0
-44 42 0
-44 43 0
-42 -43 44 0
45 39 0
45 -44 0
-39 44 -45 0
-46 8 0
-46 -30 0
-8 30 46 0
47 -14 0
47 17 0
14 -17 -47 0
47 -2 -48 0
-47 2 -48 0
47 2 48 0
-47 -2 48 0
28 48 -49 0
-28 -48 -49 0
28 -48 49 0
-28 48 49 0
50 -46 0
50 -49 0
46 49 -50 0
-51 45 0
-51 50 0
-45 -50 51 0
36 -51 -52 0
-36 51 -52 0
36 51 52 0
-36 -51 52 0
42 -39 -41 38 0
-23 -41 -16 17 0
40 19 0
-32 -9 0
-13 -16 -42 -41 24 19 0
-18 41 -31 -25 12 0
-41 -24 34 0
-14 9 0
31 -8 -44 13 -3 0
25 16 4 23 2 13 0
12 17 40 0
9 -26 4 -50 -35 0
28 18 10 -37 7 40 0
15 16 -21 29 -49 12 0
41 -34 -46 0
26 6 -34 -44 0
-17 -16 52 0
9 -35 -14 0
3 5 0
-30 34 48 -4 43 0
49 -29 -28 -20 44 1 0
-41 -18 4 20 49 0
14 -35 -16 0
-40 33 -51 -19 -52 32 0
-40 -47 -11 45 50 0
47 -20 0
18 40 22 0
-4 -41 9 0
1 -12 -27 -14 -6 0
-39 -38 36 46 -6 0
22 26 -51 46 -4 44 0
-22 16 0
27 8 0
-42 -17 -16 -13 -39 6 0
3 -27 -17 -11 49 19 0
-19 28 0
32 8 -49 30 0
-7 -4 -23 -1 0
27 -28 -14 -26 -32 -33 0
12 -15 42 0
-32 -4 18 46 0
52 0
